decision_x1=[0,4];
decision_x2=[0,4];
decision_x3=[0,4];
decision_x4=[0,4];
decision_x5=[0,4];
decision_x6=[0,4];
decision_x7=[0,4];
decision_x8=[0,4];
decision_x9=[0,4];
decision_x10=[0,4];
random_y1=[0,4];
random_y2=[0,4];
constraint_x4_x3=[
0,1,9.3|
0,2,9.5|
0,3,8.3|
0,4,7.5|
1,0,5.7|
1,2,9.1|
1,3,2.2|
1,4,2.2|
2,0,7.9|
2,1,9.4|
2,3,9.9|
2,4,5.5|
3,0,0.11|
3,1,5.5|
3,2,9.5|
3,4,7.7|
4,0,2.9|
4,1,7.9|
4,2,5.2|
4,3,1.3|
];
constraint_x6_x1=[
0,1,4.9|
0,2,5.2|
0,3,0.35|
0,4,0.84|
1,0,8.7|
1,2,5.2|
1,3,1.3|
1,4,5.6|
2,0,3.5|
2,1,4.3|
2,3,8.1|
2,4,6.3|
3,0,9.7|
3,1,0.79|
3,2,4.2|
3,4,4.4|
4,0,9.3|
4,1,0.63|
4,2,2.8|
4,3,3.7|
];
constraint_x6_x2=[
0,1,4.9|
0,2,6.3|
0,3,0.89|
0,4,2.4|
1,0,9.3|
1,2,8.1|
1,3,3.3|
1,4,5.9|
2,0,2|
2,1,4.6|
2,3,7.2|
2,4,9.7|
3,0,3.2|
3,1,6|
3,2,4.8|
3,4,7.1|
4,0,1.8|
4,1,3.1|
4,2,8.4|
4,3,4.7|
];
constraint_x6_x3=[
0,1,5.5|
0,2,5.2|
0,3,0.71|
0,4,7.4|
1,0,7.8|
1,2,2.2|
1,3,7.2|
1,4,6.4|
2,0,9|
2,1,1.4|
2,3,6.4|
2,4,5.3|
3,0,5.7|
3,1,6.8|
3,2,5.2|
3,4,1.3|
4,0,6.5|
4,1,9.6|
4,2,9.7|
4,3,5.8|
];
constraint_x6_x4=[
0,1,8.6|
0,2,5.9|
0,3,5.8|
0,4,5.3|
1,0,4.1|
1,2,9|
1,3,2.4|
1,4,8.3|
2,0,2.5|
2,1,0.45|
2,3,1.8|
2,4,0.61|
3,0,9.3|
3,1,8.5|
3,2,9.4|
3,4,6|
4,0,2.4|
4,1,2.4|
4,2,6.3|
4,3,6.7|
];
constraint_x6_x5=[
0,1,4.8|
0,2,3.9|
0,3,5.9|
0,4,3.4|
1,0,4.2|
1,2,1|
1,3,5.4|
1,4,2.7|
2,0,4.5|
2,1,8.4|
2,3,4.1|
2,4,3|
3,0,3.3|
3,1,2.1|
3,2,2.7|
3,4,3.5|
4,0,9.4|
4,1,9.3|
4,2,7.9|
4,3,5.2|
];
constraint_x7_x1=[
0,1,6|
0,2,8.5|
0,3,2.5|
0,4,7|
1,0,6.1|
1,2,7.3|
1,3,5.9|
1,4,9.3|
2,0,3|
2,1,6.4|
2,3,9.8|
2,4,6.5|
3,0,3.5|
3,1,3.6|
3,2,3.3|
3,4,3.9|
4,0,7.1|
4,1,6.3|
4,2,7.8|
4,3,2.8|
];
constraint_x7_x2=[
0,1,5.2|
0,2,2.4|
0,3,7.8|
0,4,1.5|
1,0,5.6|
1,2,8.4|
1,3,6.6|
1,4,4.5|
2,0,8.5|
2,1,1.8|
2,3,6.7|
2,4,7|
3,0,3.8|
3,1,4.3|
3,2,7.2|
3,4,6|
4,0,5.6|
4,1,7.7|
4,2,1.3|
4,3,9|
];
constraint_x7_x3=[
0,1,3.2|
0,2,3.2|
0,3,1.6|
0,4,4.1|
1,0,0.53|
1,2,8.9|
1,3,2.8|
1,4,3.3|
2,0,7|
2,1,7|
2,3,2.5|
2,4,6.2|
3,0,3.7|
3,1,0.46|
3,2,1.4|
3,4,2.1|
4,0,1.7|
4,1,9.1|
4,2,1.1|
4,3,6.2|
];
constraint_x8_x1=[
0,1,7.3|
0,2,7.7|
0,3,3|
0,4,5.6|
1,0,9.3|
1,2,1.8|
1,3,1.2|
1,4,7.9|
2,0,9.2|
2,1,4.2|
2,3,6.8|
2,4,6.6|
3,0,0.63|
3,1,4.2|
3,2,8.8|
3,4,8.1|
4,0,6|
4,1,5.3|
4,2,9.9|
4,3,1.9|
];
constraint_x8_x4=[
0,1,5.3|
0,2,1|
0,3,10|
0,4,7.3|
1,0,2.6|
1,2,5|
1,3,1.6|
1,4,0.58|
2,0,7.8|
2,1,5.5|
2,3,5.6|
2,4,7.2|
3,0,3.2|
3,1,3.2|
3,2,4|
3,4,6.7|
4,0,1.8|
4,1,0.9|
4,2,6.3|
4,3,1.3|
];
constraint_x8_x5=[
0,1,8|
0,2,0.32|
0,3,0.82|
0,4,1.7|
1,0,3.6|
1,2,6.1|
1,3,4.3|
1,4,8.6|
2,0,3.2|
2,1,7.2|
2,3,0.81|
2,4,6.3|
3,0,9.1|
3,1,1.2|
3,2,5.7|
3,4,2.3|
4,0,6.1|
4,1,2.5|
4,2,7.3|
4,3,9.4|
];
constraint_x8_x7=[
0,1,7.7|
0,2,9.4|
0,3,6.2|
0,4,6.5|
1,0,7.4|
1,2,7.5|
1,3,4.3|
1,4,4.5|
2,0,5.6|
2,1,1.5|
2,3,2|
2,4,0.53|
3,0,1.9|
3,1,3.1|
3,2,7|
3,4,9.3|
4,0,7.6|
4,1,2.9|
4,2,1.2|
4,3,6.2|
];
constraint_x9_x2=[
0,1,8.3|
0,2,7.6|
0,3,7|
0,4,8.4|
1,0,4.6|
1,2,8.9|
1,3,0.53|
1,4,1.8|
2,0,8.5|
2,1,0.83|
2,3,8.3|
2,4,3.9|
3,0,3.7|
3,1,8.5|
3,2,8.1|
3,4,3.8|
4,0,7.1|
4,1,0.49|
4,2,4.5|
4,3,5.3|
];
constraint_x9_x3=[
0,1,9.6|
0,2,9.8|
0,3,0.62|
0,4,6.2|
1,0,2.4|
1,2,7|
1,3,9|
1,4,9.5|
2,0,9.4|
2,1,6.7|
2,3,4.3|
2,4,7.1|
3,0,7.2|
3,1,6.5|
3,2,1.5|
3,4,5.9|
4,0,5.7|
4,1,5.7|
4,2,3.1|
4,3,9.2|
];
constraint_x9_x5=[
0,1,7.5|
0,2,9.4|
0,3,5.4|
0,4,4.3|
1,0,7.8|
1,2,2.3|
1,3,6.2|
1,4,2.5|
2,0,3.4|
2,1,8.9|
2,3,2.3|
2,4,7.1|
3,0,4.6|
3,1,4.1|
3,2,5.6|
3,4,7.2|
4,0,0.73|
4,1,9.3|
4,2,4.7|
4,3,2.4|
];
constraint_x9_x6=[
0,1,6|
0,2,5.2|
0,3,5.9|
0,4,7|
1,0,5.5|
1,2,1.8|
1,3,2|
1,4,6.6|
2,0,3.7|
2,1,0.12|
2,3,4.8|
2,4,2.4|
3,0,6|
3,1,7.9|
3,2,0.19|
3,4,2.7|
4,0,8.6|
4,1,9.7|
4,2,1.7|
4,3,3.8|
];
constraint_x9_x7=[
0,1,5.4|
0,2,6.3|
0,3,2.8|
0,4,8.3|
1,0,5.5|
1,2,6.1|
1,3,6.4|
1,4,5.1|
2,0,8.6|
2,1,10|
2,3,2.8|
2,4,6|
3,0,3.3|
3,1,2.8|
3,2,8.9|
3,4,6.1|
4,0,4.4|
4,1,2.9|
4,2,9.6|
4,3,1.1|
];
constraint_x9_x8=[
0,1,6.3|
0,2,3.5|
0,3,9.9|
0,4,7.8|
1,0,7.2|
1,2,0.74|
1,3,7.9|
1,4,5.7|
2,0,0.53|
2,1,3.9|
2,3,9|
2,4,6.7|
3,0,3.4|
3,1,6.4|
3,2,8.9|
3,4,9.3|
4,0,8|
4,1,9.1|
4,2,5|
4,3,0.44|
];
constraint_x10_x2=[
0,1,3.6|
0,2,4.6|
0,3,8.3|
0,4,6.7|
1,0,7.6|
1,2,9.5|
1,3,1.4|
1,4,8.9|
2,0,6.1|
2,1,8.1|
2,3,8.4|
2,4,3.7|
3,0,3.7|
3,1,3.3|
3,2,7.8|
3,4,5.7|
4,0,5.7|
4,1,2.7|
4,2,7|
4,3,4.2|
];
constraint_x10_x3=[
0,1,1.6|
0,2,7.8|
0,3,6.9|
0,4,7.6|
1,0,9.7|
1,2,7.5|
1,3,1.2|
1,4,4|
2,0,0.75|
2,1,5.7|
2,3,4.3|
2,4,2.7|
3,0,5.4|
3,1,3.3|
3,2,5|
3,4,8.6|
4,0,6.3|
4,1,9.9|
4,2,4.7|
4,3,7.9|
];
constraint_x10_x5=[
0,1,4.7|
0,2,6.8|
0,3,8.3|
0,4,9.9|
1,0,0.67|
1,2,9.7|
1,3,5.4|
1,4,1.6|
2,0,7.6|
2,1,0.058|
2,3,0.5|
2,4,5|
3,0,2.7|
3,1,6.8|
3,2,4.1|
3,4,9.9|
4,0,5.4|
4,1,6.4|
4,2,8.5|
4,3,8.5|
];
constraint_x10_x6=[
0,1,6.3|
0,2,5.4|
0,3,5.7|
0,4,6.9|
1,0,8.2|
1,2,0.26|
1,3,1.3|
1,4,9.2|
2,0,4.2|
2,1,0.35|
2,3,0.65|
2,4,8.9|
3,0,0.59|
3,1,0.85|
3,2,1.5|
3,4,0.44|
4,0,4.9|
4,1,6.3|
4,2,7.3|
4,3,4.4|
];
constraint_x1_y1=[
0,0,9|
0,1,7.1|
0,2,2|
0,3,0.16|
0,4,7|
1,0,0.93|
1,1,7.3|
1,2,0.18|
1,3,9.2|
1,4,4.8|
2,0,3.2|
2,1,1.3|
2,2,1.1|
2,3,9.8|
2,4,2.8|
3,0,7.7|
3,1,9.6|
3,2,0.41|
3,3,0.93|
3,4,3.2|
4,0,7.4|
4,1,2.6|
4,2,2.6|
4,3,1.2|
4,4,6.5|
];
constraint_x2_y2=[
0,0,3.5|
0,1,1.4|
0,2,8.6|
0,3,0.52|
0,4,9.5|
1,0,3.9|
1,1,8.7|
1,2,5.8|
1,3,5|
1,4,8.1|
2,0,1.5|
2,1,9.4|
2,2,0.46|
2,3,2.4|
2,4,0.21|
3,0,5.7|
3,1,9|
3,2,3.3|
3,3,5.3|
3,4,0.11|
4,0,7|
4,1,4.6|
4,2,8.8|
4,3,3.8|
4,4,7.7|
];
initial_distribution_y1=[0.33,0.048,0.18,0.32,0.12];
initial_distribution_y2=[0.43,0.1,0.28,0.065,0.13];
transition_y1=[
0.21,0.33,0.12,0.091,0.25|
0.1,0.3,0.04,0.27,0.28|
0.17,0.15,0.26,0.16,0.26|
0.061,0.25,0.28,0.3,0.11|
0.28,0.25,0.24,0.038,0.2|
];
transition_y2=[
0.11,0.33,0.02,0.26,0.27|
0.18,0.16,0.24,0.065,0.35|
0.098,0.28,0.13,0.28,0.21|
0.32,0.15,0.33,0.14,0.053|
0.054,0.38,0.17,0.27,0.13|
];
